POSCAR\(3)
1.0
       21.7042007446         0.0000000000         0.0000000000
       -4.8332970272         9.0263124718         0.0000000000
       -0.4796971199        -0.2905714592        22.6961718753
   Cu    O   Cl    C
  128   32    1    1
Direct
     0.984210014         0.985520005         0.635500014
     0.151350006         0.151199996         0.550989985
     0.074280001         0.323220015         0.438030005
     0.970139980         0.970279992         0.364859998
     0.095370002         0.971469998         0.665780008
     0.017470000         0.137960002         0.545889974
     0.205379993         0.327919990         0.436250001
     0.119110003         0.993770003         0.316560000
     0.097060002         0.226449996         0.672619998
     0.017589999         0.397009999         0.545899987
     0.204950005         0.075470001         0.435059994
     0.119910002         0.240860000         0.317770004
     0.981140018         0.231659994         0.638870001
     0.170210004         0.419290006         0.558480024
     0.049529999         0.049090002         0.451990008
     0.967149973         0.217390001         0.362749994
     0.271539986         0.023870001         0.694040000
     0.432060003         0.183410004         0.582499981
     0.335359991         0.332630008         0.425269991
     0.230849996         0.979340017         0.319790006
     0.384059995         0.015460000         0.688419998
     0.282629997         0.155640006         0.557709992
     0.468849987         0.339089990         0.458260000
     0.405609995         0.030540001         0.318300009
     0.384160012         0.258199990         0.688600004
     0.288819999         0.411859989         0.554679990
     0.469289988         0.099009998         0.458000004
     0.405919999         0.278100014         0.318049997
     0.230910003         0.221949995         0.679589987
     0.409500003         0.410360008         0.549430013
     0.338869989         0.087889999         0.451169997
     0.253219992         0.251300007         0.310160011
     0.552770019         0.053320002         0.651870012
     0.679509997         0.181109995         0.546249986
     0.593550026         0.343970001         0.455529988
     0.527909994         0.027610000         0.329840004
     0.656809986         0.031679999         0.639110029
     0.563369989         0.192680001         0.550899982
     0.712870002         0.339720011         0.456499994
     0.638689995         0.014050000         0.364679992
     0.656189978         0.284289986         0.639249980
     0.563350022         0.435640007         0.550880015
     0.713119984         0.088310003         0.456330001
     0.638570011         0.263900012         0.365090013
     0.549380004         0.300410002         0.650520027
     0.675350010         0.425969988         0.545109987
     0.602379978         0.104130000         0.457670003
     0.531769991         0.281690001         0.354589999
     0.765089989         0.015869999         0.635429978
     0.906109989         0.156420007         0.545449972
     0.826099992         0.326559991         0.457040012
     0.748749971         0.998809993         0.366299987
     0.872659981         0.996789992         0.634760022
     0.792010009         0.167319998         0.545000017
     0.940299988         0.315230012         0.454189986
     0.858829975         0.983659983         0.365590006
     0.872669995         0.249819994         0.634739995
     0.791620016         0.418170005         0.544849992
     0.940530002         0.065889999         0.454160005
     0.858799994         0.234160006         0.365559995
     0.763610005         0.264550000         0.635529995
     0.906639993         0.406809986         0.545180023
     0.827310026         0.077459998         0.456409991
     0.748049974         0.248140007         0.366380006
     0.984130025         0.483969986         0.635469973
     0.151089996         0.649450004         0.550880015
     0.074620001         0.823549986         0.435629994
     0.970040023         0.469819993         0.364859998
     0.096660003         0.468210012         0.672710001
     0.017759999         0.637019992         0.546159983
     0.203830004         0.826380014         0.434460014
     0.119949996         0.494410008         0.317539990
     0.095150001         0.720189989         0.665719986
     0.017710000         0.898559988         0.546119988
     0.206119999         0.576409996         0.436610013
     0.119369999         0.739790022         0.316460013
     0.979730010         0.730390012         0.637350023
     0.161760002         0.911520004         0.564400017
     0.049369998         0.549009979         0.451979995
     0.966300011         0.716549993         0.362390012
     0.219640002         0.471960008         0.682760000
     0.413929999         0.665170014         0.582279980
     0.335099995         0.835500002         0.425370008
     0.231590003         0.479829997         0.320690006
     0.346060008         0.459010005         0.697229981
     0.288349986         0.665539980         0.554709971
     0.471249998         0.843640029         0.456250012
     0.405690014         0.530560017         0.318199992
     0.344770014         0.737689972         0.697179973
     0.282209992         0.910080016         0.558019996
     0.471439987         0.599889994         0.456409991
     0.406040013         0.778050005         0.318179995
     0.230370000         0.743510008         0.679539979
     0.408659995         0.909850001         0.549340010
     0.342539996         0.591910005         0.448579997
     0.253309995         0.751060009         0.310189992
     0.552860022         0.554409981         0.652300000
     0.679509997         0.679239988         0.546169996
     0.595149994         0.845709980         0.453469992
     0.527920008         0.528100014         0.330179989
     0.656210005         0.530120015         0.639180005
     0.567619979         0.699129999         0.547259986
     0.713069975         0.838680029         0.456339985
     0.638530016         0.513189971         0.365069985
     0.656889975         0.783819973         0.639129996
     0.567170024         0.937950015         0.547460020
     0.712800026         0.586690009         0.456429988
     0.638729990         0.763450027         0.364670008
     0.549849987         0.800710022         0.644410014
     0.678129971         0.929050028         0.544589996
     0.602240026         0.601459980         0.457480013
     0.531759977         0.781610012         0.354539990
     0.764569998         0.515290022         0.635429978
     0.905870020         0.656210005         0.544719994
     0.826040030         0.826229990         0.457040012
     0.748640001         0.498670012         0.366050005
     0.872219980         0.496369988         0.634419978
     0.791540027         0.665950000         0.544809997
     0.940240026         0.815630019         0.453990012
     0.858519971         0.482930005         0.365330011
     0.872210026         0.749289989         0.634410024
     0.791960001         0.917689979         0.545040011
     0.940450013         0.565649986         0.453990012
     0.858529985         0.734340012         0.365310013
     0.763620019         0.764230013         0.635460019
     0.906549990         0.906989992         0.545210004
     0.827369988         0.577589989         0.455830008
     0.748049974         0.747950017         0.366389990
     0.042450000         0.292409986         0.707369983
     0.149440005         0.145459995         0.468190014
     0.068030000         0.316179991         0.354160011
     0.150509998         0.157720000         0.634549975
     0.084440000         0.334039986         0.520709991
     0.166559994         0.164430007         0.275759995
     0.309240013         0.264999986         0.723749995
     0.244859993         0.996020019         0.608410001
     0.417879999         0.167150006         0.500490010
     0.343010008         0.341089994         0.342359990
     0.449849993         0.202470005         0.664240003
     0.324180007         0.316689998         0.508229971
     0.261660010         0.007700000         0.401210010
     0.465530008         0.213789999         0.291819990
     0.496789992         0.986050010         0.580280006
     0.510819972         0.014670000         0.414829999
     0.045130000         0.795700014         0.701979995
     0.149299994         0.645519972         0.468030006
     0.066790000         0.814199984         0.351990014
     0.150020003         0.643899977         0.634469986
     0.082079999         0.831960022         0.518149972
     0.166740000         0.663619995         0.275660008
     0.308649987         0.859929979         0.723550022
     0.253829986         0.503610015         0.603100002
     0.421180010         0.671679974         0.498199999
     0.343070000         0.840969980         0.342429996
     0.323240012         0.831439972         0.508229971
     0.262549996         0.508530021         0.402079999
     0.465640008         0.713869989         0.291729987
     0.497599989         0.511349976         0.580349982
     0.510389984         0.506550014         0.415050000
     0.585489988         0.695559978         0.768400013
     0.428009987         0.682049990         0.680949986
     0.584949970         0.691999972         0.701889992
